p tw 36 41
1 2
2 13
3 4
4 5
4 7
5 6
6 7
6 10
7 8
8 9
9 29
10 11
11 12
11 16
12 14
13 24
14 15
15 16
15 31
16 17
17 18
17 26
18 19
19 20
20 21
20 26
21 22
22 23
23 25
24 31
25 26
26 27
27 28
28 31
29 30
31 32
32 33
33 34
34 35
35 36
36 3
